NAME          
ROWS
 N  OBJ
 L  c1
 L  c2
 L  c3
 L  c4
 L  c5
COLUMNS
    MARKER    'MARKER'                 'INTORG'
    x[1]      c1        474
    x[1]      c2        868
    x[1]      c3        926
    x[1]      c4        535
    x[1]      c5        538
    x[1]      OBJ       -601
    x[2]      c1        505
    x[2]      c2        616
    x[2]      c3        377
    x[2]      c4        753
    x[2]      c5        584
    x[2]      OBJ       -543
    x[3]      c1        57
    x[3]      c2        42
    x[3]      c3        670
    x[3]      c4        656
    x[3]      c5        543
    x[3]      OBJ       -625
    x[4]      c1        961
    x[4]      c2        185
    x[4]      c3        255
    x[4]      c4        461
    x[4]      c5        784
    x[4]      OBJ       -142
    x[5]      c1        447
    x[5]      c2        843
    x[5]      c3        846
    x[5]      c4        968
    x[5]      c5        780
    x[5]      OBJ       -363
    x[6]      c1        123
    x[6]      c2        775
    x[6]      c3        474
    x[6]      c4        244
    x[6]      c5        471
    x[6]      OBJ       -387
    x[7]      c1        358
    x[7]      c2        750
    x[7]      c3        622
    x[7]      c4        288
    x[7]      c5        210
    x[7]      OBJ       -153
    x[8]      c1        766
    x[8]      c2        788
    x[8]      c3        311
    x[8]      c4        878
    x[8]      c5        158
    x[8]      OBJ       -133
    x[9]      c1        71
    x[9]      c2        591
    x[9]      c3        560
    x[9]      c4        693
    x[9]      c5        619
    x[9]      OBJ       -946
    x[10]     c1        856
    x[10]     c2        764
    x[10]     c3        589
    x[10]     c4        260
    x[10]     c5        574
    x[10]     OBJ       -828
    x[11]     c1        344
    x[11]     c2        202
    x[11]     c3        973
    x[11]     c4        187
    x[11]     c5        949
    x[11]     OBJ       -85
    x[12]     c1        799
    x[12]     c2        687
    x[12]     c3        676
    x[12]     c4        113
    x[12]     c5        147
    x[12]     OBJ       -244
    x[13]     c1        16
    x[13]     c2        991
    x[13]     c3        643
    x[13]     c4        560
    x[13]     c5        233
    x[13]     OBJ       -380
    x[14]     c1        14
    x[14]     c2        394
    x[14]     c3        6
    x[14]     c4        119
    x[14]     c5        285
    x[14]     OBJ       -610
    x[15]     c1        648
    x[15]     c2        287
    x[15]     c3        175
    x[15]     c4        579
    x[15]     c5        177
    x[15]     OBJ       -173
RHS
    rhs       c1        3220
    rhs       c2        4392
    rhs       c3        4052
    rhs       c4        3647
    rhs       c5        3526
RANGES
BOUNDS
 BV bounds    x[1]
 BV bounds    x[2]
 BV bounds    x[3]
 BV bounds    x[4]
 BV bounds    x[5]
 BV bounds    x[6]
 BV bounds    x[7]
 BV bounds    x[8]
 BV bounds    x[9]
 BV bounds    x[10]
 BV bounds    x[11]
 BV bounds    x[12]
 BV bounds    x[13]
 BV bounds    x[14]
 BV bounds    x[15]
ENDATA
